c 12_3_checker.cnf
c
c field = 12
c formula set type = 3_checker
c
p cnf 4 20
16 
18 
20 
-14 
17 
19 
21 
-15 
16 
18 
20 
-24 
17 
19 
21 
-25 
18 
20 
24 
-16 
19 
21 
25 
-17 
18 
20 
24 
-26 
19 
21 
25 
-27 
20 
24 
26 
-18 
21 
25 
27 
-19 
20 
24 
26 
-28 
21 
25 
27 
-29 
24 
26 
28 
-20 
25 
27 
29 
-21 
52 
82 
112 
-142 
53 
83 
113 
-143 
54 
86 
118 
-22 
55 
87 
119 
-23 
50 
78 
106 
-134 
51 
79 
107 
-135 
